10
40
1700
1232
1088
1014
999
869
826
626
490
328
9	761
9	386
15	622
97	950
91	857
45	184
136	500
216	470
302	594
387	737
431	681
411	557
750	876
897	942
826	827
664	536
734	552
879	568
732	343
427	129
123	440
232	810
249	426
410	659
482	754
644	889
733	950
128	136
828	836
712	682
308	290
956	630
332	155
72	30
853	297
605	164
778	188
698	105
416	32
739	50
